(set-info :smt-lib-version 2.6)
(set-logic QF_NIA)
(set-info :source |
Generated by: Cristina Borralleras, Daniel Larraz, Albert Oliveras, Enric Rodriguez-Carbonell, Albert Rubio
Generated on: 2017-04-27
Generator: VeryMax
Application: Termination proving
Target solver: barcelogic
|)
(set-info :license "https://creativecommons.org/licenses/by/4.0/")
(set-info :category "industrial")
(set-info :status sat)
(declare-fun Nl2main_life1 () Int)
(declare-fun Nl2main_death1 () Int)
(declare-fun Nl2main_life2 () Int)
(declare-fun Nl2main_death2 () Int)
(declare-fun Nl2main_life3 () Int)
(declare-fun Nl2main_death3 () Int)
(declare-fun lam0n0 () Int)
(declare-fun lam0n1 () Int)
(declare-fun lam0n2 () Int)
(declare-fun lam0n3 () Int)
(declare-fun lam0n4 () Int)
(declare-fun lam0n5 () Int)
(declare-fun Nl2CT1 () Int)
(declare-fun Nl2CT2 () Int)
(declare-fun Nl2CT3 () Int)
(declare-fun lam1n0 () Int)
(declare-fun lam1n1 () Int)
(declare-fun lam1n2 () Int)
(declare-fun lam1n3 () Int)
(declare-fun lam1n4 () Int)
(declare-fun lam1n5 () Int)
(declare-fun lam2n0 () Int)
(declare-fun lam2n1 () Int)
(declare-fun lam2n2 () Int)
(declare-fun lam2n3 () Int)
(declare-fun lam2n4 () Int)
(declare-fun lam2n5 () Int)
(declare-fun lam3n0 () Int)
(declare-fun lam3n1 () Int)
(declare-fun lam3n2 () Int)
(declare-fun lam3n3 () Int)
(declare-fun lam3n4 () Int)
(declare-fun lam3n5 () Int)
(declare-fun lam4n0 () Int)
(declare-fun lam4n1 () Int)
(declare-fun lam5n0 () Int)
(declare-fun lam5n1 () Int)
(declare-fun lam6n0 () Int)
(declare-fun lam6n1 () Int)
(declare-fun main_life () Int)
(declare-fun main_death () Int)
(declare-fun FV_main_life_1 () Int)
(declare-fun FV_main_death_1 () Int)
(declare-fun lam7n0 () Int)
(declare-fun lam7n1 () Int)
(declare-fun lam7n2 () Int)
(declare-fun lam7n3 () Int)
(declare-fun lam7n4 () Int)
(declare-fun FV_main_life_2 () Int)
(declare-fun FV_main_death_2 () Int)
(assert ( and ( <= ( - 2 ) Nl2main_life1 ) ( <= Nl2main_life1 2 ) ( <= ( - 2 ) Nl2main_death1 ) ( <= Nl2main_death1 2 ) ( <= ( - 2 ) Nl2main_life2 ) ( <= Nl2main_life2 2 ) ( <= ( - 2 ) Nl2main_death2 ) ( <= Nl2main_death2 2 ) ( <= ( - 2 ) Nl2main_life3 ) ( <= Nl2main_life3 2 ) ( <= ( - 2 ) Nl2main_death3 ) ( <= Nl2main_death3 2 ) ))
(assert ( or ( and ( >= lam0n0 0 ) ( >= lam0n1 0 ) ( >= lam0n2 0 ) ( >= lam0n3 0 ) ( >= lam0n4 0 ) ( >= lam0n5 0 ) ( > ( + ( * 2 lam0n0 ) ( * 1 lam0n1 ) ( * 3 lam0n2 ) ( * Nl2CT1 lam0n3 ) ( * Nl2CT2 lam0n4 ) ( * Nl2CT3 lam0n5 ) ( - 1 ) ) 0 ) ( = ( + ( * ( - 1 ) lam0n0 ) ( * 1 lam0n1 ) ( * Nl2main_life1 lam0n3 ) ( * Nl2main_life2 lam0n4 ) ( * Nl2main_life3 lam0n5 ) ) 0 ) ( = ( + ( * ( - 1 ) lam0n1 ) ( * ( - 1 ) lam0n2 ) ( * Nl2main_death1 lam0n3 ) ( * Nl2main_death2 lam0n4 ) ( * Nl2main_death3 lam0n5 ) ) 0 ) ) ( and ( >= lam1n0 0 ) ( >= lam1n1 0 ) ( >= lam1n2 0 ) ( >= lam1n3 0 ) ( >= lam1n4 0 ) ( >= lam1n5 0 ) ( > ( + ( * 2 lam1n0 ) ( * 1 lam1n1 ) ( * 3 lam1n2 ) ( * Nl2CT1 lam1n3 ) ( * Nl2CT2 lam1n4 ) ( * Nl2CT3 lam1n5 ) ( - 1 ( + ( + Nl2CT1 ( * Nl2main_life1 2 ) ) ( * Nl2main_death1 1 ) ) ) ) 0 ) ( = ( + ( * ( - 1 ) lam1n0 ) ( * 1 lam1n1 ) ( * Nl2main_life1 lam1n3 ) ( * Nl2main_life2 lam1n4 ) ( * Nl2main_life3 lam1n5 ) ( - ( + 0 ( * Nl2main_death1 1 ) ) ) ) 0 ) ( = ( + ( * ( - 1 ) lam1n1 ) ( * ( - 1 ) lam1n2 ) ( * Nl2main_death1 lam1n3 ) ( * Nl2main_death2 lam1n4 ) ( * Nl2main_death3 lam1n5 ) ) 0 ) ) ))
(assert ( or ( and ( >= lam0n0 0 ) ( >= lam0n1 0 ) ( >= lam0n2 0 ) ( >= lam0n3 0 ) ( >= lam0n4 0 ) ( >= lam0n5 0 ) ( > ( + ( * 2 lam0n0 ) ( * 1 lam0n1 ) ( * 3 lam0n2 ) ( * Nl2CT1 lam0n3 ) ( * Nl2CT2 lam0n4 ) ( * Nl2CT3 lam0n5 ) ( - 1 ) ) 0 ) ( = ( + ( * ( - 1 ) lam0n0 ) ( * 1 lam0n1 ) ( * Nl2main_life1 lam0n3 ) ( * Nl2main_life2 lam0n4 ) ( * Nl2main_life3 lam0n5 ) ) 0 ) ( = ( + ( * ( - 1 ) lam0n1 ) ( * ( - 1 ) lam0n2 ) ( * Nl2main_death1 lam0n3 ) ( * Nl2main_death2 lam0n4 ) ( * Nl2main_death3 lam0n5 ) ) 0 ) ) ( and ( >= lam2n0 0 ) ( >= lam2n1 0 ) ( >= lam2n2 0 ) ( >= lam2n3 0 ) ( >= lam2n4 0 ) ( >= lam2n5 0 ) ( > ( + ( * 2 lam2n0 ) ( * 1 lam2n1 ) ( * 3 lam2n2 ) ( * Nl2CT1 lam2n3 ) ( * Nl2CT2 lam2n4 ) ( * Nl2CT3 lam2n5 ) ( - 1 ( + ( + Nl2CT2 ( * Nl2main_life2 2 ) ) ( * Nl2main_death2 1 ) ) ) ) 0 ) ( = ( + ( * ( - 1 ) lam2n0 ) ( * 1 lam2n1 ) ( * Nl2main_life1 lam2n3 ) ( * Nl2main_life2 lam2n4 ) ( * Nl2main_life3 lam2n5 ) ( - ( + 0 ( * Nl2main_death2 1 ) ) ) ) 0 ) ( = ( + ( * ( - 1 ) lam2n1 ) ( * ( - 1 ) lam2n2 ) ( * Nl2main_death1 lam2n3 ) ( * Nl2main_death2 lam2n4 ) ( * Nl2main_death3 lam2n5 ) ) 0 ) ) ))
(assert ( or ( and ( >= lam0n0 0 ) ( >= lam0n1 0 ) ( >= lam0n2 0 ) ( >= lam0n3 0 ) ( >= lam0n4 0 ) ( >= lam0n5 0 ) ( > ( + ( * 2 lam0n0 ) ( * 1 lam0n1 ) ( * 3 lam0n2 ) ( * Nl2CT1 lam0n3 ) ( * Nl2CT2 lam0n4 ) ( * Nl2CT3 lam0n5 ) ( - 1 ) ) 0 ) ( = ( + ( * ( - 1 ) lam0n0 ) ( * 1 lam0n1 ) ( * Nl2main_life1 lam0n3 ) ( * Nl2main_life2 lam0n4 ) ( * Nl2main_life3 lam0n5 ) ) 0 ) ( = ( + ( * ( - 1 ) lam0n1 ) ( * ( - 1 ) lam0n2 ) ( * Nl2main_death1 lam0n3 ) ( * Nl2main_death2 lam0n4 ) ( * Nl2main_death3 lam0n5 ) ) 0 ) ) ( and ( >= lam3n0 0 ) ( >= lam3n1 0 ) ( >= lam3n2 0 ) ( >= lam3n3 0 ) ( >= lam3n4 0 ) ( >= lam3n5 0 ) ( > ( + ( * 2 lam3n0 ) ( * 1 lam3n1 ) ( * 3 lam3n2 ) ( * Nl2CT1 lam3n3 ) ( * Nl2CT2 lam3n4 ) ( * Nl2CT3 lam3n5 ) ( - 1 ( + ( + Nl2CT3 ( * Nl2main_life3 2 ) ) ( * Nl2main_death3 1 ) ) ) ) 0 ) ( = ( + ( * ( - 1 ) lam3n0 ) ( * 1 lam3n1 ) ( * Nl2main_life1 lam3n3 ) ( * Nl2main_life2 lam3n4 ) ( * Nl2main_life3 lam3n5 ) ( - ( + 0 ( * Nl2main_death3 1 ) ) ) ) 0 ) ( = ( + ( * ( - 1 ) lam3n1 ) ( * ( - 1 ) lam3n2 ) ( * Nl2main_death1 lam3n3 ) ( * Nl2main_death2 lam3n4 ) ( * Nl2main_death3 lam3n5 ) ) 0 ) ) ))
(assert ( and ( <= ( + Nl2CT1 ( * Nl2main_life1 FV_main_life_1 ) ( * Nl2main_death1 FV_main_death_1 ) ) 0 ) ( <= ( + Nl2CT2 ( * Nl2main_life2 FV_main_life_1 ) ( * Nl2main_death2 FV_main_death_1 ) ) 0 ) ( <= ( + Nl2CT3 ( * Nl2main_life3 FV_main_life_1 ) ( * Nl2main_death3 FV_main_death_1 ) ) 0 ) ))
(assert ( and ( >= lam7n0 0 ) ( >= lam7n1 0 ) ( >= lam7n2 0 ) ( >= lam7n3 0 ) ( >= lam7n4 0 ) ( > ( + ( * 2 lam7n1 ) ( * Nl2CT1 lam7n2 ) ( * Nl2CT2 lam7n3 ) ( * Nl2CT3 lam7n4 ) ( - 1 ) ) 0 ) ( = ( + ( * ( - 1 ) lam7n0 ) ( * ( - 1 ) lam7n1 ) ( * Nl2main_life1 lam7n2 ) ( * Nl2main_life2 lam7n3 ) ( * Nl2main_life3 lam7n4 ) ) 0 ) ( = ( + ( * 1 lam7n0 ) ( * Nl2main_death1 lam7n2 ) ( * Nl2main_death2 lam7n3 ) ( * Nl2main_death3 lam7n4 ) ) 0 ) ))
(assert ( and ( and ( <= ( + Nl2CT1 ( * Nl2main_life1 FV_main_life_2 ) ( * Nl2main_death1 FV_main_death_2 ) ) 0 ) ( <= ( + Nl2CT2 ( * Nl2main_life2 FV_main_life_2 ) ( * Nl2main_death2 FV_main_death_2 ) ) 0 ) ( <= ( + Nl2CT3 ( * Nl2main_life3 FV_main_life_2 ) ( * Nl2main_death3 FV_main_death_2 ) ) 0 ) ) ( and ( <= ( + 2 ( * ( - 1 ) FV_main_life_2 ) ) 0 ) ( <= ( + 1 FV_main_life_2 ( * ( - 1 ) FV_main_death_2 ) ) 0 ) ( <= ( + 3 ( * ( - 1 ) FV_main_death_2 ) ) 0 ) ) ))
(check-sat)
(exit)
